155
1000000
416893
591228
509868
193462
234779
414200
295958
784793
494962
363205
657656
262118
130137
266508
475697
457922
482035
687941
880768
835387
487931
142076
547354
820827
858380
259880
103186
676286
113023
497959
637216
490132
535578
853021
469405
670064
577420
101333
216329
164613
361463
431854
565760
536684
184339
632483
768608
18839
665694
981161
974617
221904
50429
89441
176680
552735
46507
262832
28583
468027
586261
422580
429055
115582
455616
257971
499496
381849
119565
126015
26344
279430
233015
58457
438160
215207
638537
584477
691015
402237
166477
179173
60168
25383
838586
833523
12991
60775
130184
15153
823320
28894
305723
742029
547538
778096
13223
483684
517965
434240
278963
323512
408783
15303
314783
485170
530595
271295
4377
512069
302267
31457
358652
231392
536698
139261
452462
154840
174566
224449
362784
51712
641348
189239
74000
734455
321793
720570
129736
141620
442888
411644
591217
207418
516316
265545
320989
62093
869863
146979
210726
362027
728
202
132738
631700
511136
884418
939832
134419
623733
419764
463316
110985
987009
